[runlim] version:		1.10
[runlim] time limit:		311040000 seconds
[runlim] real time limit:	600 seconds
[runlim] space limit:		14000 MB
[runlim] argv[0]:		python3
[runlim] argv[1]:		cp.py
[runlim] argv[2]:		TUD916.2
[runlim] start:			Tue Jan 20 18:44:59 2026
[runlim] main pid:		174575
[runlim] sample:		10.0 time, 10.1 real, 608.7 MB
[runlim] sample:		20.0 time, 20.1 real, 1151.5 MB
[runlim] sample:		30.0 time, 30.1 real, 2106.8 MB
[runlim] sample:		40.0 time, 40.1 real, 2533.2 MB
[runlim] sample:		50.0 time, 50.1 real, 3424.2 MB
[runlim] sample:		60.0 time, 60.1 real, 5983.3 MB
[runlim] sample:		69.9 time, 70.1 real, 9230.8 MB
Building CP model...
Solving CP Optimizer...
 ! --------------------------------------------------- CP Optimizer 22.1.1.0 --
 ! Minimization problem - 34196 variables, 2937502 constraints
 ! Presolve      : 2938420 extractables eliminated
 ! LogVerbosity         = Terse
 ! Initial process time : 26.15s (26.05s extraction + 0.11s propagation)
 !  . Log search space  : 34196.0 (before), 34196.0 (after)
 !  . Memory usage      : 402.1 MB (before), 402.1 MB (after)
 ! Using parallel search with 12 workers.
 ! ----------------------------------------------------------------------------
 !          Best Branches  Non-fixed    W       Branch decision
                        0      34196                 -
 + New bound is 0
[runlim] sample:		99.3 time, 80.1 real, 10451.3 MB
[runlim] end:			Tue Jan 20 18:46:27 2026
[runlim] status:		out of memory
[runlim] result:		3
[runlim] children:		662
[runlim] real:			88.96 seconds
[runlim] time:			201.94 seconds
[runlim] space:			14188.5 MB
[runlim] samples:		888
